30
205
30
65
52
75
98
66
73
35
90
90
61
39
1
52
39
20
66
72
12
66
31
14
80
48
10
37
81
39
7
88
2
0 1
0 7
0 8
0 9
0 12
0 14
0 16
0 17
0 22
0 23
0 25
0 27
1 2
1 3
1 5
1 9
1 10
1 11
1 13
1 15
1 16
1 17
1 18
1 19
1 21
1 22
1 26
1 29
2 4
2 5
2 7
2 10
2 11
2 14
2 16
2 17
2 19
2 20
2 26
2 27
2 28
2 29
3 5
3 8
3 10
3 11
3 12
3 14
3 15
3 17
3 19
3 23
3 25
3 26
3 27
3 28
3 29
4 5
4 7
4 10
4 12
4 13
4 15
4 17
4 18
4 19
4 22
4 23
4 24
4 28
5 10
5 12
5 15
5 19
5 20
5 22
5 27
6 7
6 9
6 10
6 11
6 12
6 14
6 20
6 21
6 22
6 26
6 27
6 28
7 14
7 16
7 18
7 20
7 21
7 22
7 24
7 26
7 29
8 10
8 11
8 13
8 14
8 15
8 17
8 18
8 22
8 23
8 24
8 25
8 26
8 27
8 29
9 10
9 12
9 13
9 15
9 16
9 21
9 22
9 24
9 25
9 26
9 27
9 28
9 29
10 12
10 19
10 22
10 23
10 26
10 27
10 28
11 12
11 13
11 14
11 16
11 17
11 19
11 24
12 13
12 17
12 18
12 21
12 29
13 14
13 16
13 17
13 18
13 19
13 21
13 24
13 25
13 28
13 29
14 15
14 16
14 17
14 22
14 23
14 24
14 25
14 27
15 20
15 21
15 24
15 25
15 26
15 29
16 17
16 21
16 23
16 28
17 18
17 22
17 24
17 27
18 19
18 21
18 25
19 21
19 22
19 28
20 21
20 22
20 23
20 24
20 26
20 28
21 24
21 28
22 23
22 24
22 28
22 29
23 26
24 25
24 26
24 27
24 28
25 26
25 28
25 29
26 27
27 28
27 29
19
11
26
8
1
9
23
2
21
13
22
14
29
12
6
28
20
15
10
7
0
5
24
3
4
25
16
18
27
17
